50
15948

465 567
376 253
370 77
119 623
73 788
286 225
7 376
624 572
327 969
310 915
546 9
187 31
656 995
325 153
831 16
65 906
382 607
856 502
584 287
937 318
89 786
317 688
730 621
451 148
948 899
290 37
533 660
730 391
651 553
640 877
183 541
882 821
90 206
491 377
995 25
751 777
595 439
961 666
527 191
911 617
208 514
746 195
86 660
421 499
920 870
948 374
22 841
723 249
285 249
612 145
